# Solution for model count
# Objective value = 9
z#1 0
z#2 0
z#3 0
z#4 1
z#5 1
z#6 1
z#7 0
z#8 1
z#9 1
z#10 0
z#11 1
z#12 1
z#13 0
z#14 1
z#15 0
z#16 0
z#17 0
z#18 0
z#19 1
z#20 0
z#21 0
z#22 0
z#23 0
z#24 0
x#24 0
x#23 0
x#22 0
x#21 0
x#20 0
x#19 3731
x#18 0
x#17 0
x#16 0
x#15 0
x#14 899
x#13 0
x#12 60
x#11 226
x#10 0
x#9 911
x#8 1446
x#7 0
x#6 1709
x#5 940
x#4 78
x#3 0
x#2 0
x#1 0
